100
128
2
8
61
1
26
31
10
10
23
21
7
23
39
7
14
48
55
40
9
28
8
51
9
40
62
47
47
40
16
16
7
42
8
36
50
32
14
37
21
19
31
36
59
12
32
35
30
52
28
36
56
17
36
2
12
12
53
32
18
29
41
24
19
25
23
12
18
46
39
16
34
62
33
47
21
19
53
21
54
19
16
44
27
30
3
40
19
57
49
14
18
20
27
43
18
28
18
21
64
58